%nprocshared=4
%mem=16GB
%chk=water_dimer_reduced

# sp HF/3-21G

title

-1 2
O         -0.01404        0.17798        0.08832
H          0.23955       -0.11154        0.97926
H          0.77445        0.00514       -0.45055
O         -1.24855       -2.29937       -0.64206
H         -0.97397       -1.38644       -0.42836
H         -2.13985       -2.19890       -1.00566




